objective value:                                   12
lambda[0,55]*                                       6 	(obj:0)
lambda[0,60]*                                       5 	(obj:0)
lambda[0,61]*                                       1 	(obj:2)
lambda[0,68]*                                       3 	(obj:2)
lambda[0,71]*                                       1 	(obj:0)
lambda[0,73]*                                       2 	(obj:2)
lambda[0,75]*                                       2 	(obj:0)
